8 10 5 5 1200
4.0 0.35 1.0 0.42 0.0 0.19 4.0 0.25 0.0 0.41 2.0 0.34 1.0 0.17 3.0 0.27 2.0 0.25 3.0 0.41
2.0 0.25 2.0 0.43 0.0 0.42 3.0 0.21 4.0 0.35 4.0 0.3 1.0 0.27 1.0 0.16 3.0 0.16 0.0 0.21
2.0 0.43 4.0 0.4 3.0 0.36 1.0 0.2 2.0 0.24 0.0 0.23 3.0 0.24 4.0 0.25 1.0 0.26 0.0 0.16
3.0 0.33 2.0 0.41 0.0 0.39 2.0 0.36 0.0 0.35 1.0 0.33 4.0 0.19 4.0 0.2 3.0 0.41 1.0 0.43
0.0 0.3 4.0 0.5 2.0 0.33 1.0 0.3 0.0 0.21 3.0 0.17 2.0 0.26 4.0 0.45 3.0 0.29 1.0 0.25
4.0 0.4 2.0 0.3 1.0 0.42 0.0 0.16 2.0 0.34 1.0 0.31 3.0 0.34 4.0 0.25 3.0 0.23 0.0 0.38
0.0 0.46 2.0 0.29 1.0 0.3 4.0 0.28 3.0 0.17 4.0 0.25 1.0 0.2 3.0 0.45 0.0 0.28 2.0 0.38
1.0 0.31 2.0 0.23 0.0 0.36 4.0 0.32 0.0 0.19 4.0 0.4 3.0 0.29 1.0 0.38 2.0 0.36 3.0 0.18
